row=8;
column=8;
left=[15, 21, 16, 13, 24, 0, 0, 0];
right=[18, 15, 0, 0, 14, 8, 20, 27];
top=[15, 0, 19, 0, 0, 22, 9, 0];
bottom=[8, 0, 21, 15, 13, 17, 19, 16];
Board=[|0,0,0,2,0,3,0,0|0,0,0,0,2,5,8,7|0,0,0,8,0,6,0,2|0,0,0,0,0,0,6,0|0,5,7,3,0,8,0,0|5,0,3,0,0,0,7,0|0,0,0,4,0,0,3,5|0,0,1,0,0,0,0,0|]